========================================================== 
File name: C:\DEGR\assets\definitions\MSRCPSP_Gen\500_20_512_5_D.def
Creation date: Sat May 06 09:15:53 CEST 2023
Website: http://imopse.ii.pwr.edu.pl/ 
Reference: 
Myszkowski P. B., Skowronski M. E., Olech L., Oslizlo K., 
Hybrid Ant Colony Optimization in solving Multi-Skill Resource-Constrained Project Scheduling Problem, 
Soft Computing, DOI: DOI 10.1007/s00500-014-1455-x 
========================================================== 
General characteristics: 
Tasks: 500
Resources: 20
Precedence relations: 506
Number of skill types: 5
========================================================== 
ResourceID 	 Salary 	 Skills 
1	 	 	86.1	 	 Q0: 1 	  Q1: 1 	  Q2: 3 	 
2	 	 	42.0	 	 Q1: 0 	  Q2: 2 	 
3	 	 	65.4	 	 Q4: 0 	 
4	 	 	42.0	 	 Q1: 0 	  Q3: 3 	  Q4: 3 	 
5	 	 	62.4	 	 Q3: 1 	 
6	 	 	85.0	 	 Q3: 3 	  Q2: 2 	  Q1: 0 	 
7	 	 	39.8	 	 Q1: 0 	  Q3: 0 	  Q4: 1 	 
8	 	 	98.9	 	 Q0: 1 	  Q1: 1 	 
9	 	 	58.5	 	 Q1: 2 	  Q4: 3 	  Q3: 3 	  Q2: 2 	 
10	 	 	14.5	 	 Q1: 0 	  Q3: 2 	  Q4: 1 	 
11	 	 	47.7	 	 Q3: 0 	 
12	 	 	34.6	 	 Q4: 0 	  Q2: 3 	  Q0: 0 	 
13	 	 	81.4	 	 Q4: 0 	  Q3: 1 	 
14	 	 	19.9	 	 Q0: 0 	  Q1: 0 	 
15	 	 	73.6	 	 Q3: 1 	  Q1: 2 	  Q4: 0 	  Q2: 3 	 
16	 	 	40.8	 	 Q4: 0 	  Q0: 3 	 
17	 	 	19.0	 	 Q4: 1 	  Q2: 3 	  Q3: 3 	  Q1: 2 	 
18	 	 	76.2	 	 Q1: 2 	  Q4: 2 	  Q3: 0 	 
19	 	 	78.9	 	 Q4: 1 	  Q0: 3 	  Q1: 2 	 
20	 	 	69.3	 	 Q3: 3 	  Q2: 0 	 
========================================================== 
TaskID 	 Duration 	 Skill 	 Predecessor IDs 
1	36	Q0:	0
2	20	Q4:	0
3	15	Q1:	1
4	26	Q1:	0
5	38	Q2:	2
6	39	Q4:	2
7	11	Q4:	1
8	14	Q3:	0	3
9	28	Q4:	0
10	26	Q4:	1
11	36	Q0:	1
12	21	Q2:	0
13	21	Q3:	2	9
14	19	Q4:	1
15	39	Q3:	3
16	10	Q4:	0
17	22	Q2:	0
18	34	Q2:	2
19	37	Q3:	0	1
20	19	Q4:	1
21	33	Q4:	1
22	27	Q3:	1
23	20	Q4:	0
24	20	Q0:	0
25	12	Q3:	0
26	13	Q1:	2
27	24	Q1:	2
28	30	Q2:	3
29	37	Q2:	3
30	20	Q4:	3
31	39	Q2:	2	14
32	28	Q3:	3	8
33	16	Q1:	2
34	24	Q1:	2
35	11	Q0:	0
36	37	Q3:	1
37	16	Q0:	0
38	16	Q3:	3
39	9	Q0:	3
40	22	Q4:	0
41	20	Q1:	2
42	36	Q4:	0
43	35	Q0:	3
44	11	Q4:	1
45	29	Q1:	2
46	19	Q1:	2
47	34	Q4:	2
48	36	Q4:	0
49	12	Q3:	2
50	9	Q3:	0
51	38	Q1:	1
52	22	Q3:	1	47
53	10	Q2:	0
54	16	Q4:	3
55	9	Q0:	0
56	16	Q3:	3
57	17	Q3:	2	46
58	19	Q3:	0
59	39	Q0:	1
60	22	Q1:	1
61	14	Q3:	0
62	32	Q0:	3
63	32	Q2:	2	5
64	29	Q2:	3	30
65	11	Q3:	3
66	25	Q2:	3
67	37	Q3:	1	41
68	30	Q0:	3
69	13	Q1:	0
70	10	Q0:	1
71	34	Q3:	1	26
72	20	Q3:	0
73	14	Q0:	0
74	10	Q1:	0	61
75	23	Q3:	1	17
76	28	Q1:	1
77	38	Q3:	2
78	13	Q1:	1
79	20	Q0:	1
80	39	Q2:	2	44	50
81	17	Q1:	1
82	30	Q3:	1
83	20	Q0:	3
84	21	Q2:	2
85	16	Q1:	2
86	15	Q2:	2	48
87	31	Q3:	3
88	27	Q0:	1	30
89	39	Q2:	3
90	31	Q1:	1	21
91	35	Q1:	1
92	19	Q0:	3
93	16	Q2:	0
94	34	Q2:	0
95	10	Q2:	2
96	23	Q4:	3	20
97	35	Q1:	0
98	15	Q1:	0	54
99	16	Q0:	1
100	33	Q3:	0
101	26	Q1:	0
102	34	Q2:	3	25	62
103	11	Q4:	0
104	13	Q4:	1	94
105	11	Q1:	1	71	28
106	38	Q0:	0	26
107	19	Q3:	0	85
108	38	Q4:	3
109	23	Q0:	1
110	23	Q1:	0	20	95
111	28	Q3:	2
112	36	Q2:	0	39
113	15	Q2:	2
114	34	Q2:	3	31
115	21	Q3:	1
116	38	Q2:	2
117	28	Q3:	0	46
118	10	Q1:	0	41
119	19	Q2:	2
120	20	Q3:	0	83
121	27	Q4:	2
122	10	Q4:	2	85
123	27	Q2:	0	39
124	35	Q1:	1
125	24	Q4:	2
126	9	Q3:	1	27
127	25	Q1:	2
128	14	Q3:	2
129	27	Q0:	1
130	27	Q0:	3
131	37	Q2:	0
132	33	Q3:	1	48
133	15	Q4:	1	13
134	24	Q2:	0
135	29	Q1:	1
136	34	Q4:	0
137	10	Q4:	1	103	120
138	16	Q0:	1	61
139	35	Q4:	3
140	14	Q0:	3	32
141	31	Q4:	2	111
142	28	Q2:	3	34
143	36	Q4:	1
144	18	Q3:	2	9
145	22	Q4:	1
146	32	Q2:	3
147	23	Q4:	0
148	33	Q4:	3
149	21	Q2:	0	41	82
150	15	Q1:	2	74	87
151	23	Q3:	2
152	40	Q0:	1	99
153	32	Q1:	2
154	24	Q0:	3	28	114	40
155	34	Q0:	0	27	53
156	40	Q3:	3	101	139
157	19	Q3:	1	18
158	21	Q4:	1	156	28
159	30	Q3:	3
160	37	Q3:	3
161	26	Q1:	0	5	76
162	37	Q1:	2
163	20	Q3:	3
164	37	Q2:	0
165	26	Q4:	3	65
166	26	Q2:	2	153
167	38	Q1:	0
168	25	Q0:	3	148
169	13	Q3:	3	50
170	22	Q2:	2	117
171	19	Q1:	0
172	26	Q2:	0
173	33	Q3:	0
174	28	Q0:	0
175	35	Q4:	2
176	26	Q0:	1	170
177	11	Q4:	2
178	36	Q2:	2	46
179	36	Q4:	1
180	34	Q2:	2
181	29	Q4:	0	53	43	172
182	12	Q3:	2	91	45
183	36	Q3:	3	178
184	35	Q4:	3
185	20	Q1:	2
186	22	Q3:	0	111
187	27	Q2:	2
188	23	Q0:	3
189	35	Q1:	1	76
190	26	Q3:	0	172
191	22	Q4:	1
192	11	Q3:	1
193	35	Q3:	2
194	27	Q2:	3
195	37	Q3:	2
196	9	Q3:	3	126
197	27	Q4:	2	122
198	38	Q0:	0
199	33	Q3:	2	47
200	21	Q0:	3	38
201	27	Q0:	1	30	105	145
202	35	Q0:	0	175	68
203	36	Q1:	1
204	28	Q4:	3	47
205	34	Q1:	1	3	183	133
206	38	Q0:	1
207	38	Q0:	0	78	102
208	16	Q2:	0	150	110
209	38	Q2:	2	96
210	37	Q1:	2	201
211	12	Q0:	0
212	18	Q3:	2
213	23	Q2:	2	196	9	135
214	15	Q2:	0
215	23	Q4:	1
216	15	Q3:	1
217	13	Q1:	0
218	29	Q3:	2	76
219	19	Q3:	2	7
220	40	Q3:	1	144	152
221	15	Q2:	2
222	34	Q3:	0
223	21	Q4:	2
224	25	Q4:	1	99
225	21	Q4:	1	160
226	21	Q3:	3
227	32	Q3:	2
228	14	Q1:	2	101	179
229	16	Q1:	0	71
230	16	Q3:	1	1	15
231	25	Q1:	0	58
232	18	Q2:	0	34	136
233	20	Q0:	1	223
234	38	Q4:	3	131
235	37	Q2:	3	148	172
236	28	Q3:	1
237	34	Q2:	0
238	12	Q2:	3
239	34	Q1:	0
240	19	Q3:	0
241	20	Q1:	0
242	12	Q2:	0	184
243	13	Q2:	2	79
244	23	Q3:	2	185	168
245	15	Q3:	3	66
246	24	Q1:	2
247	25	Q3:	3
248	14	Q3:	2
249	15	Q3:	2	61	82	67
250	37	Q2:	2	237
251	24	Q3:	2
252	36	Q1:	0
253	37	Q3:	2
254	32	Q2:	0	211	207
255	25	Q3:	3	182	229
256	21	Q2:	0	117
257	14	Q3:	1	207	147
258	12	Q0:	1	149	256
259	27	Q1:	2	187	160
260	14	Q4:	3	134
261	35	Q1:	2	48
262	20	Q4:	0	223	148
263	12	Q2:	2	203	191
264	14	Q3:	1	175	36
265	13	Q4:	1	235	55
266	35	Q1:	2	208
267	17	Q0:	1	200
268	17	Q4:	2	6	205	69
269	38	Q0:	3
270	16	Q0:	3
271	19	Q4:	1	161	110
272	20	Q4:	2
273	34	Q3:	2	23
274	12	Q0:	0
275	35	Q4:	3	97
276	14	Q4:	0	12	266	111
277	19	Q1:	2	105
278	39	Q4:	2
279	35	Q2:	0
280	9	Q1:	2	86	164	20	247
281	37	Q3:	3	31
282	23	Q1:	1	222	218
283	38	Q0:	0
284	32	Q4:	2
285	29	Q2:	0	271	194	195	139
286	39	Q3:	1
287	14	Q1:	0
288	31	Q0:	0	95	217	201	276
289	27	Q0:	0
290	12	Q4:	0	188	211
291	22	Q2:	2	80	260	87
292	23	Q3:	2	229
293	34	Q3:	3	220
294	18	Q2:	0	160	111
295	31	Q4:	2	293	276	60
296	17	Q4:	0	294
297	12	Q3:	3	259
298	16	Q1:	2	86	291	27
299	26	Q1:	1	59
300	34	Q4:	3
301	22	Q4:	1	203
302	36	Q3:	2	71
303	21	Q1:	1	79
304	38	Q3:	0	3
305	13	Q0:	1	139	134
306	28	Q3:	0	39	68
307	13	Q4:	1	206	112
308	9	Q0:	0	193
309	9	Q2:	3	13	191
310	34	Q1:	0	134	51	19
311	27	Q4:	3	175
312	32	Q3:	0
313	11	Q3:	0	104	71	155
314	13	Q1:	2	97
315	12	Q2:	0
316	34	Q1:	2	86
317	9	Q3:	0
318	38	Q4:	2
319	18	Q3:	1	180	309
320	35	Q2:	0
321	20	Q3:	1	217
322	21	Q4:	3	284	22	163	280
323	17	Q0:	3	237
324	18	Q0:	1	215
325	30	Q1:	2
326	12	Q2:	2	242	28
327	22	Q3:	0
328	40	Q1:	1
329	19	Q2:	3
330	20	Q2:	0	63	233
331	29	Q0:	3	216	137
332	39	Q0:	1
333	25	Q4:	0	47	153
334	39	Q2:	2	215
335	25	Q2:	0	12	82
336	21	Q3:	3	196
337	35	Q4:	0	186	206
338	26	Q3:	1	46	24
339	37	Q1:	2	33	85
340	25	Q3:	1	166
341	23	Q3:	1	15
342	18	Q1:	0	4
343	13	Q3:	2
344	35	Q0:	1	326
345	21	Q1:	2	101	165
346	23	Q3:	3	255
347	40	Q1:	1	83	276
348	11	Q3:	1
349	8	Q3:	3
350	17	Q3:	2	153	112
351	33	Q2:	2	334
352	22	Q0:	3	22	117	120
353	18	Q4:	2	95	344	284	6
354	40	Q2:	2
355	31	Q2:	3	342	254
356	13	Q1:	0
357	21	Q1:	0	237	222
358	16	Q3:	1	6
359	22	Q2:	3	277	21
360	32	Q3:	0	43
361	16	Q1:	2
362	20	Q1:	2	181	169
363	22	Q3:	1	92	330
364	28	Q3:	0	116
365	10	Q3:	3	301	215	260	136
366	23	Q1:	0	56	163	264
367	15	Q2:	2	157
368	39	Q4:	3	143	179
369	30	Q1:	2	105	12	107
370	26	Q3:	2	71	179
371	19	Q3:	0	238	122
372	30	Q2:	3	347	22
373	14	Q2:	2	139	331
374	21	Q4:	2	223
375	13	Q0:	1	71
376	21	Q4:	0
377	10	Q2:	3	121	290
378	11	Q4:	1	146
379	33	Q4:	1
380	40	Q0:	1	196
381	10	Q4:	3	179
382	17	Q3:	2
383	15	Q4:	1	114	130	379
384	24	Q4:	3	208
385	30	Q0:	1	382
386	18	Q2:	2	52	60
387	9	Q2:	0
388	17	Q2:	0
389	30	Q0:	1	213
390	9	Q2:	0	35
391	39	Q1:	0	205	276
392	12	Q3:	1
393	25	Q0:	1	60	163	130
394	37	Q1:	1	53
395	9	Q0:	0	304	57
396	22	Q0:	1	181
397	25	Q3:	3	352
398	30	Q3:	0	369
399	38	Q4:	1	195	369
400	34	Q3:	1	176	98	207
401	22	Q3:	0	119
402	24	Q4:	0	76	356	75
403	30	Q3:	3
404	33	Q3:	0
405	27	Q2:	2
406	19	Q0:	0	42
407	40	Q0:	3	265
408	20	Q1:	0	132	82
409	29	Q0:	1	327
410	25	Q4:	3	397	221	72	404
411	12	Q3:	2	327
412	13	Q3:	2	73	5	207	182
413	12	Q3:	1
414	27	Q3:	2
415	38	Q4:	0
416	33	Q4:	1	277	221	43
417	26	Q0:	0	248	44
418	35	Q4:	3	314
419	18	Q1:	0	15	198
420	31	Q1:	2	374	278
421	38	Q2:	3
422	24	Q0:	1
423	11	Q3:	2	59
424	18	Q4:	0	240	122
425	40	Q2:	3	268	411	18	281
426	34	Q4:	0	1	388
427	34	Q1:	0	78	54
428	34	Q3:	1	103	302	402
429	25	Q2:	0	62	45
430	17	Q4:	3	169
431	10	Q3:	3	121	273
432	29	Q1:	0	276
433	15	Q1:	1	26	23	351
434	20	Q2:	2	154	385
435	39	Q4:	3	406	381
436	21	Q2:	0	99	270
437	40	Q4:	2	55	227
438	23	Q4:	3	99	280
439	19	Q2:	0
440	12	Q2:	2	412
441	18	Q3:	1
442	10	Q4:	3	55
443	28	Q2:	2	361
444	25	Q1:	0	239
445	16	Q3:	0	240
446	13	Q4:	1	100
447	9	Q4:	1
448	19	Q1:	1	160
449	29	Q0:	0	243	337	166	268	21
450	22	Q2:	0	428
451	11	Q2:	2	176	23	240
452	19	Q1:	1	441
453	11	Q2:	3	173	103
454	22	Q3:	3
455	22	Q0:	3	248	198	194	39
456	33	Q4:	1	152	245	227	172
457	38	Q2:	2	150	254
458	18	Q1:	0	179	84
459	13	Q1:	0	261	249	370	165
460	12	Q3:	2	170	323
461	14	Q3:	0	111	17
462	18	Q1:	0
463	17	Q2:	2	120	295
464	20	Q2:	0	98	154	119
465	24	Q2:	0	460	191	358
466	24	Q1:	0	390	156	400	329
467	13	Q0:	0
468	27	Q1:	2	362	174	436	319
469	27	Q2:	3
470	24	Q2:	3	238	246	15
471	12	Q4:	3	59	36
472	16	Q0:	3	167	104	48	177	426
473	13	Q3:	0	426	8
474	39	Q3:	2	43	6	291
475	21	Q3:	1	115	34	143
476	33	Q3:	2	23	303	153	442
477	12	Q3:	2
478	23	Q1:	0	187	197
479	37	Q4:	0	65	36	270
480	24	Q0:	0
481	11	Q2:	3	135	41
482	15	Q1:	2	328
483	35	Q3:	3	24	32
484	19	Q3:	0
485	40	Q1:	0	390	166
486	29	Q1:	1
487	9	Q0:	1	459	315	433
488	15	Q2:	2	129
489	29	Q2:	2	425	148
490	20	Q3:	0	465	102	111	315
491	15	Q0:	1	224
492	11	Q0:	0	300
493	40	Q0:	1	416	436	223
494	26	Q2:	3	246
495	15	Q3:	0	311
496	14	Q0:	1	327
497	9	Q4:	1	348	180	270	277
498	35	Q0:	1	2
499	24	Q0:	0	432
500	26	Q1:	2	206	322	437
========================================================== 